The latest version of Julia in the `release` channel is 1.11.6+0.x64.linux.gnu. You currently have `1.11.2+0.x64.linux.gnu` installed. Run:

  juliaup update

in your terminal shell to install Julia 1.11.6+0.x64.linux.gnu and update the `release` channel to that version.
[info | PowerModels]: Suppressing information and warning messages for the rest of this session.  Use the Memento package for more fine-grained control of logging.

******************************************************************************
This program contains Ipopt, a library for large-scale nonlinear optimization.
 Ipopt is released as open source code under the Eclipse Public License (EPL).
         For more information visit https://github.com/coin-or/Ipopt
******************************************************************************

This is Ipopt version 3.14.17, running with linear solver ma27.

Number of nonzeros in equality constraint Jacobian...:     2100
Number of nonzeros in inequality constraint Jacobian.:      546
Number of nonzeros in Lagrangian Hessian.............:     3500

Total number of variables............................:      575
                     variables with only lower bounds:        0
                variables with lower and upper bounds:      500
                     variables with only upper bounds:        0
Total number of equality constraints.................:      499
Total number of inequality constraints...............:      273
        inequality constraints with only lower bounds:        0
   inequality constraints with lower and upper bounds:      123
        inequality constraints with only upper bounds:      150

iter    objective    inf_pr   inf_du lg(mu)  ||d||  lg(rg) alpha_du alpha_pr  ls
   0  1.5822799e+02 1.09e+00 1.04e+02  -1.0 0.00e+00    -  0.00e+00 0.00e+00   0
   1  8.6773520e+04 9.22e-02 1.52e+02  -1.0 1.80e+00    -  5.79e-03 9.15e-01h  1
   2  8.8010775e+04 1.31e-01 1.39e+02  -1.0 1.23e+00    -  4.77e-02 8.73e-02h  1
   3  8.9307408e+04 1.26e-01 1.26e+02  -1.0 4.38e-01    -  3.48e-01 9.30e-02h  1

Number of Iterations....: 3

                                   (scaled)                 (unscaled)
Objective...............:   1.7861481509116078e+04    8.9307407545580383e+04
Dual infeasibility......:   1.2645336461727486e+02    6.3226682308637430e+02
Constraint violation....:   1.2584484867687873e-01    1.2584484867687873e-01
Variable bound violation:   5.5579044172637815e-05    5.5579044172637815e-05
Complementarity.........:   5.0009153699931303e+03    2.5004576849965651e+04
Overall NLP error.......:   5.0009153699931303e+03    2.5004576849965651e+04


Number of objective function evaluations             = 4
Number of objective gradient evaluations             = 4
Number of equality constraint evaluations            = 4
Number of inequality constraint evaluations          = 4
Number of equality constraint Jacobian evaluations   = 4
Number of inequality constraint Jacobian evaluations = 4
Number of Lagrangian Hessian evaluations             = 3
Total seconds in IPOPT                               = 3.298

EXIT: Maximum Number of Iterations Exceeded.
free(): invalid pointer
malloc(): unaligned tcache chunk detected
